6288.26 533739
237445 296145
462576 118102
238738 296136
442208 125762
347405 222980
386471 180471
68562.6 484902
270088 273183
217422 326659
141483 436550
412256 165483
249091 295341
318503 245063
256612 288944
56811.8 501889
256421 289134
40095.5 530274
280625 265114
109704 448602
259033 286753
434984 131672
379349 192822
418441 160865
285683 261291
423665 142277
156658 408769
256160 290981
178383 390598
276664 271154
380732 191947
94356.5 453583
441885 129828
335653 230029
457814 119197
212959 378294
200187 380166
349444 222472
422861 156090
269878 279807
143030 425443
178670 387461
91205.5 472141
56690.5 509199
180328 386643
197838 385696
452560 122929
48956.3 510834
47751 515089
428643 133058
135647 446349
206451 380154
417648 160924
340858 228803
141826 435723
54305.3 509361
199745 380273
179627 386784
